2
150 150
97
20 97 1
21 96 1
21 97 1
24 88 1
27 83 1
28 86 1
29 82 1
29 88 1
30 80 1
30 81 1
30 82 2
30 83 1
31 81 1
31 86 1
32 82 1
35 76 1
36 76 1
36 81 1
37 75 1
39 78 1
40 75 1
41 77 1
42 73 1
44 71 1
44 73 1
45 65 1
45 69 1
46 65 1
46 69 1
47 70 1
47 72 1
48 70 1
49 62 1
49 66 1
49 68 1
50 66 1
54 60 1
54 64 1
55 55 1
55 56 1
55 57 1
55 60 1
55 63 1
56 62 1
57 54 1
58 55 2
59 59 1
60 50 1
62 48 1
62 51 1
63 48 1
64 46 1
64 53 1
65 48 1
66 47 1
66 50 1
66 52 1
67 48 1
67 51 1
68 42 1
68 47 1
69 45 1
69 49 1
70 49 1
72 40 1
72 41 1
73 38 1
74 36 1
74 39 1
74 43 1
75 35 1
76 38 1
77 33 1
77 35 1
78 34 1
78 41 1
80 33 1
81 33 2
81 35 1
82 32 1
82 37 1
86 29 1
86 32 1
87 30 1
87 32 1
88 31 1
89 25 1
91 19 1
92 23 1
92 26 1
93 24 1
94 19 1
94 20 1
94 22 1
97 13 1
97 22 1
98 16 1
